/*********************************************
 * OPL 12.6.0.0 Data
 * Author: Adrian Rodriguez Bazaga, Pau Rodriguez Esmerats
 * Creation Date: 06/12/2017 at 23:04:58
 *********************************************/

nNurses=224;
maxConsec=2;
maxPresence=7;
maxHours=5;
minHours=1;
hours=24;
demand= [45 35 54 55 35 54 55 36 29 12 4 7 5 8 8 7 6 6 4 1 33 57 27 57  ];
